Converted POSCAR
1.0
        4.734300593686400000    -0.00000000000000000    -0.00000000000000000
        -0.00000000000000000    -0.00000000000000000    9.526751394700800000
        -0.00000000000000000    23.79601929537600000    -0.00000000000000000
    Y       La      Pr      Gd      Co      Fe      O       
    5       5       5       5       4       16      60      
Direct
    0.021849712130309246    0.750000064797408400    0.799102653114382600
    0.521849528293735500    0.750000064797408400    0.700897365221121100
    0.521849528293735500    0.750000064797408400    0.300897350552718270
    0.521849528293735500    0.750000064797408400    0.900897335884315200
    0.978150287869690800    0.250000064797408330    0.600897324883013100
    0.021849712130309246    0.750000064797408400    0.599102682451188500
    0.021849712130309246    0.750000064797408400    0.999102660448583800
    0.478150287869690800    0.250000064797408330    0.899102656781483300
    0.978150287869690800    0.250000064797408330    0.400897354219819000
    0.978150287869690800    0.250000064797408330    0.800897332217214500
    0.021849712130309246    0.750000064797408400    0.399102675116986940
    0.478150287869690800    0.250000064797408330    0.499102678784087650
    0.478150287869690800    0.250000064797408330    0.099102664115684700
    0.978150287869690800    0.250000064797408330    0.200897346885617500
    0.978150287869690800    0.250000064797408330    0.0008973395514160344
    0.021849712130309246    0.750000064797408400    0.199102667782785460
    0.521849528293735500    0.750000064797408400    0.500897357886919700
    0.521849528293735500    0.750000064797408400    0.100897343218516770
    0.478150287869690800    0.250000064797408330    0.699102686118289200
    0.478150287869690800    0.250000064797408330    0.299102671449886170
    0.500000000000000000    1.000000000000000000    0.799999992665798500
    0.500000000000000000    1.000000000000000000    0.400000014668402960
    1.000000000000000000    1.000000000000000000    0.700000025669705200
    1.000000000000000000    0.500000000000000000    0.100000003667100740
    0.500000000000000000    1.000000000000000000    0.600000022002604400
    0.500000000000000000    1.000000000000000000    0.200000007334201480
    0.500000000000000000    1.000000000000000000    1.000000000000000000
    0.500000000000000000    0.500000000000000000    0.799999992665798500
    0.500000000000000000    0.500000000000000000    0.600000022002604400
    0.500000000000000000    0.500000000000000000    0.400000014668402960
    0.500000000000000000    0.500000000000000000    0.200000007334201480
    0.500000000000000000    0.500000000000000000    1.000000000000000000
    1.000000000000000000    1.000000000000000000    0.500000018335503700
    1.000000000000000000    1.000000000000000000    0.300000011001302200
    1.000000000000000000    1.000000000000000000    0.100000003667100740
    1.000000000000000000    1.000000000000000000    0.899999996332899300
    1.000000000000000000    0.500000000000000000    0.700000025669705200
    1.000000000000000000    0.500000000000000000    0.500000018335503700
    1.000000000000000000    0.500000000000000000    0.300000011001302200
    1.000000000000000000    0.500000000000000000    0.899999996332899300
    0.508839413973123900    0.250000064797408330    0.787238848795865300
    0.508839413973123900    0.250000064797408330    0.587238878132671200
    0.508839413973123900    0.250000064797408330    0.387238870798469750
    0.508839413973123900    0.250000064797408330    0.187238863464268240
    0.508839413973123900    0.250000064797408330    0.987238856130066800
    0.008839413973123829    0.250000064797408330    0.712761169539638400
    0.008839413973123829    0.250000064797408330    0.512761162205437000
    0.008839413973123829    0.250000064797408330    0.312761154871235460
    0.008839413973123829    0.250000064797408330    0.112761147537033940
    0.008839413973123829    0.250000064797408330    0.912761140202832400
    0.991160402190302700    0.750000064797408400    0.687238881799771900
    0.991160402190302700    0.750000064797408400    0.487238874465570460
    0.991160402190302700    0.750000064797408400    0.287238867131369040
    0.991160402190302700    0.750000064797408400    0.087238859797167530
    0.991160402190302700    0.750000064797408400    0.887238852462966100
    0.491160586026876300    0.750000064797408400    0.612761129201530300
    0.491160586026876300    0.750000064797408400    0.412761158538336170
    0.491160586026876300    0.750000064797408400    0.212761151204134720
    0.491160586026876300    0.750000064797408400    0.012761143869933218
    0.491160586026876300    0.750000064797408400    0.812761136535731800
    0.777808866585018700    0.965866021249921400    0.755490557417281500
    0.777808866585018700    0.965866021249921400    0.555490586754087400
    0.777808866585018700    0.965866021249921400    0.355490579419886000
    0.777808866585018700    0.965866021249921400    0.155490572085684430
    0.777808866585018700    0.965866021249921400    0.955490564751483000
    0.777808866585018700    0.534133978750078700    0.755490557417281500
    0.777808866585018700    0.534133978750078700    0.555490586754087400
    0.777808866585018700    0.534133978750078700    0.355490579419886000
    0.777808866585018700    0.534133978750078700    0.155490572085684430
    0.777808866585018700    0.534133978750078700    0.955490564751483000
    0.277808866585018740    0.965866021249921400    0.744509460918222100
    0.277808866585018740    0.965866021249921400    0.544509453584020700
    0.277808866585018740    0.965866021249921400    0.344509446249819300
    0.277808866585018740    0.965866021249921400    0.144509438915617770
    0.277808866585018740    0.965866021249921400    0.944509431581416300
    0.277808866585018740    0.534133978750078700    0.744509460918222100
    0.277808866585018740    0.534133978750078700    0.544509453584020700
    0.277808866585018740    0.534133978750078700    0.344509446249819300
    0.277808866585018740    0.534133978750078700    0.144509438915617770
    0.277808866585018740    0.534133978750078700    0.944509431581416300
    0.722190949578407700    0.465866021249921270    0.655490590421188200
    0.722190949578407700    0.465866021249921270    0.455490583086986600
    0.722190949578407700    0.465866021249921270    0.255490575752785200
    0.722190949578407700    0.465866021249921270    0.055490568418583710
    0.722190949578407700    0.465866021249921270    0.855490561084382300
    0.722190949578407700    0.034133978750078730    0.655490590421188200
    0.722190949578407700    0.034133978750078730    0.455490583086986600
    0.722190949578407700    0.034133978750078730    0.255490575752785200
    0.722190949578407700    0.034133978750078730    0.055490568418583710
    0.722190949578407700    0.034133978750078730    0.855490561084382300
    0.222191133414981300    0.465866021249921270    0.644509420580114000
    0.222191133414981300    0.465866021249921270    0.444509449916920000
    0.222191133414981300    0.465866021249921270    0.244509442582718500
    0.222191133414981300    0.465866021249921270    0.044509435248517040
    0.222191133414981300    0.465866021249921270    0.844509427914315500
    0.222191133414981300    0.034133978750078730    0.644509420580114000
    0.222191133414981300    0.034133978750078730    0.444509449916920000
    0.222191133414981300    0.034133978750078730    0.244509442582718500
    0.222191133414981300    0.034133978750078730    0.044509435248517040
    0.222191133414981300    0.034133978750078730    0.844509427914315500
