Y La Pr Gd Co Fe O
0.16
    29.58937871054000000    -0.00000000000000000    -0.00000000000000000
    -0.00000000000000000    -0.00000000000000000    59.54219621687999400
    -0.00000000000000000    148.7251205961000000    -0.00000000000000000
Y    La    Pr    Gd    Co    Fe    O
5    5    5    5    4    16    60
Cartesian 
    0.646519406940000000    118.8466384531000100    44.65665102084000000
    15.44120332260000000    104.2410451679999900    44.65665102084000000
    15.44120332260000000    44.75099474800000400    44.65665102084000000
    15.44120332260000000    133.9860649241000000    44.65665102084000000
    28.94285930360000000    89.36852710910000000    14.88555291240000000
    0.646519406940000000    89.10161869700000000    44.65665102084000000
    0.646519406940000000    148.5916636630999800    44.65665102084000000
    14.14816994833000000    133.7191510581000000    14.88555291240000000
    28.94285930360000000    59.62350735300000000    14.88555291240000000
    28.94285930360000000    119.1135523191000000    14.88555291240000000
    0.646519406940000000    59.35659348700000500    44.65665102084000000
    14.14816994833000000    74.22910609200000000    14.88555291240000000
    14.14816994833000000    14.73905567200000000    14.88555291240000000
    28.94285930360000000    29.87848214300000000    14.88555291240000000
    28.94285930360000000    0.133456933000000000    14.88555291240000000
    0.646519406940000000    29.61156827700000000    44.65665102084000000
    15.44120332260000000    74.49601995799999000    44.65665102084000000
    15.44120332260000000    15.00596953800000000    44.65665102084000000
    14.14816994833000000    103.9741313020000000    14.88555291240000000
    14.14816994833000000    44.48408088200000000    14.88555291240000000
    14.79468935527000000    118.9800953860999900    59.54219621687999400
    14.79468935527000000    59.49005042000000000    59.54219621687999400
    29.58937871054000000    104.1075882350000100    59.54219621687999400
    29.58937871054000000    14.87251260500000000    29.77109810843999700
    14.79468935527000000    89.23507563000000000    59.54219621687999400
    14.79468935527000000    29.74502521000000000    59.54219621687999400
    14.79468935527000000    148.7251205961000000    59.54219621687999400
    14.79468935527000000    118.9800953860999900    29.77109810843999700
    14.79468935527000000    89.23507563000000000    29.77109810843999700
    14.79468935527000000    59.49005042000000000    29.77109810843999700
    14.79468935527000000    29.74502521000000000    29.77109810843999700
    14.79468935527000000    148.7251205961000000    29.77109810843999700
    29.58937871054000000    74.36256302500000000    59.54219621687999400
    29.58937871054000000    44.61753781500000000    59.54219621687999400
    29.58937871054000000    14.87251260500000000    59.54219621687999400
    29.58937871054000000    133.8526079911000000    59.54219621687999400
    29.58937871054000000    104.1075882350000100    29.77109810843999700
    29.58937871054000000    74.36256302500000000    29.77109810843999700
    29.58937871054000000    44.61753781500000000    29.77109810843999700
    29.58937871054000000    133.8526079911000000    29.77109810843999700
    15.05624212290000000    117.0821927251000000    14.88555291240000000
    15.05624212290000000    87.33717296900000000    14.88555291240000000
    15.05624212290000000    57.59214775900000000    14.88555291240000000
    15.05624212290000000    27.84712254899999800    14.88555291240000000
    15.05624212290000000    146.8272179351000000    14.88555291240000000
    0.261552767630000000    106.0054908960000000    14.88555291240000000
    0.261552767630000000    76.26046568600000000    14.88555291240000000
    0.261552767630000000    46.51544047600000000    14.88555291240000000
    0.261552767630000000    16.77041526599999700    14.88555291240000000
    0.261552767630000000    135.7505106521000000    14.88555291240000000
    29.32782050330000300    102.2096855739999900    44.65665102084000000
    29.32782050330000300    72.46466036400000000    44.65665102084000000
    29.32782050330000300    42.71963515400000000    44.65665102084000000
    29.32782050330000300    12.97460994400000100    44.65665102084000000
    29.32782050330000300    131.9547053301000000    44.65665102084000000
    14.53313658764000100    91.13297283710000000    44.65665102084000000
    14.53313658764000100    61.38795308100000000    44.65665102084000000
    14.53313658764000100    31.64292787100000000    44.65665102084000000
    14.53313658764000100    1.897902661000000000    44.65665102084000000
    14.53313658764000100    120.8779980471000100    44.65665102084000000
    23.01488111779999800    112.3604242611000100    57.50978415648000000
    23.01488111779999800    82.61540450500000000    57.50978415648000000
    23.01488111779999800    52.87037929500000600    57.50978415648000000
    23.01488111779999800    23.12535408499999800    57.50978415648000000
    23.01488111779999800    142.1054494711000000    57.50978415648000000
    23.01488111779999800    112.3604242611000100    31.80351016884000000
    23.01488111779999800    82.61540450500000000    31.80351016884000000
    23.01488111779999800    52.87037929500000600    31.80351016884000000
    23.01488111779999800    23.12535408499999800    31.80351016884000000
    23.01488111779999800    142.1054494711000000    31.80351016884000000
    8.220191762530000000    110.7272593599999900    57.50978415648000000
    8.220191762530000000    80.98223415000000000    57.50978415648000000
    8.220191762530000000    51.23720894000000000    57.50978415648000000
    8.220191762530000000    21.49218373000000000    57.50978415648000000
    8.220191762530000000    140.4722791161000000    57.50978415648000000
    8.220191762530000000    110.7272593599999900    31.80351016884000000
    8.220191762530000000    80.98223415000000000    31.80351016884000000
    8.220191762530000000    51.23720894000000000    31.80351016884000000
    8.220191762530000000    21.49218373000000000    31.80351016884000000
    8.220191762530000000    140.4722791161000000    31.80351016884000000
    21.36918150840000000    97.48791711000000000    27.73868604803999800
    21.36918150840000000    67.74289189999999000    27.73868604803999800
    21.36918150840000000    37.99786669000000000    27.73868604803999800
    21.36918150840000000    8.252841480000000000    27.73868604803999800
    21.36918150840000000    127.2329368661000000    27.73868604803999800
    21.36918150840000000    97.48791711000000000    2.032412060400000000
    21.36918150840000000    67.74289189999999000    2.032412060400000000
    21.36918150840000000    37.99786669000000000    2.032412060400000000
    21.36918150840000000    8.252841480000000000    2.032412060400000000
    21.36918150840000000    127.2329368661000000    2.032412060400000000
    6.574497592740000000    95.85474130109999000    27.73868604803999800
    6.574497592740000000    66.10972154500000000    27.73868604803999800
    6.574497592740000000    36.36469633500000000    27.73868604803999800
    6.574497592740000000    6.619671125000001000    27.73868604803999800
    6.574497592740000000    125.5997665111000000    27.73868604803999800
    6.574497592740000000    95.85474130109999000    2.032412060400000000
    6.574497592740000000    66.10972154500000000    2.032412060400000000
    6.574497592740000000    36.36469633500000000    2.032412060400000000
    6.574497592740000000    6.619671125000001000    2.032412060400000000
    6.574497592740000000    125.5997665111000000    2.032412060400000000
